NAME: cuum40.tsp
TYPE: TSP
COMMENT: User-generated TSP file
DIMENSION: 40
EDGE_WEIGHT_TYPE: EUC_2D
NODE_COORD_SECTION
1 17.0 8.0
2 6.0 6.0
3 37.0 19.0
4 20.0 7.0
5 37.0 31.0
6 34.0 28.0
7 12.0 40.0
8 37.0 10.0
9 28.0 21.0
10 29.0 38.0
11 25.0 32.0
12 35.0 37.0
13 17.0 22.0
14 39.0 5.0
15 8.0 20.0
16 4.0 9.0
17 36.0 13.0
18 39.0 11.0
19 4.0 6.0
20 19.0 31.0
21 22.0 36.0
22 33.0 39.0
23 15.0 30.0
24 8.0 16.0
25 27.0 29.0
26 34.0 24.0
27 7.0 38.0
28 21.0 28.0
29 14.0 33.0
30 18.0 13.0
31 18.0 16.0
32 14.0 36.0
33 5.0 31.0
34 36.0 3.0
35 36.0 25.0
36 38.0 19.0
37 36.0 7.0
38 33.0 30.0
39 17.0 28.0
40 10.0 19.0
EOF





